p cnf 722 2762
-1 25 0
-26 -1 25 0
-26 1 -25 0
26 1 25 0
26 -1 -25 0
-26 -2 24 0
-27 26 0
-27 -2 24 0
-27 2 -24 0
27 -26 -2 -24 0
27 -26 2 24 0
-27 -3 23 0
-28 27 0
-28 -3 23 0
-28 3 -23 0
28 -27 -3 -23 0
28 -27 3 23 0
-28 -4 22 0
-29 28 0
-29 -4 22 0
-29 4 -22 0
29 -28 -4 -22 0
29 -28 4 22 0
-29 -5 21 0
-30 29 0
-30 -5 21 0
-30 5 -21 0
30 -29 -5 -21 0
30 -29 5 21 0
-30 -6 20 0
-31 30 0
-31 -6 20 0
-31 6 -20 0
31 -30 -6 -20 0
31 -30 6 20 0
-31 -7 19 0
-32 31 0
-32 -7 19 0
-32 7 -19 0
32 -31 -7 -19 0
32 -31 7 19 0
-32 -8 18 0
-33 32 0
-33 -8 18 0
-33 8 -18 0
33 -32 -8 -18 0
33 -32 8 18 0
-33 -9 17 0
-34 33 0
-34 -9 17 0
-34 9 -17 0
34 -33 -9 -17 0
34 -33 9 17 0
-34 -10 16 0
-35 34 0
-35 -10 16 0
-35 10 -16 0
35 -34 -10 -16 0
35 -34 10 16 0
-35 -11 15 0
-36 35 0
-36 -11 15 0
-36 11 -15 0
36 -35 -11 -15 0
36 -35 11 15 0
-36 -12 14 0
-37 36 0
-37 -12 14 0
-37 12 -14 0
37 -36 -12 -14 0
37 -36 12 14 0
-37 -14 12 0
-39 37 0
-39 -14 12 0
-39 14 -12 0
39 -37 -14 -12 0
39 -37 14 12 0
-39 -15 11 0
-40 39 0
-40 -15 11 0
-40 15 -11 0
40 -39 -15 -11 0
40 -39 15 11 0
-40 -16 10 0
-41 40 0
-41 -16 10 0
-41 16 -10 0
41 -40 -16 -10 0
41 -40 16 10 0
-41 -17 9 0
-42 41 0
-42 -17 9 0
-42 17 -9 0
42 -41 -17 -9 0
42 -41 17 9 0
-42 -18 8 0
-43 42 0
-43 -18 8 0
-43 18 -8 0
43 -42 -18 -8 0
43 -42 18 8 0
-43 -19 7 0
-44 43 0
-44 -19 7 0
-44 19 -7 0
44 -43 -19 -7 0
44 -43 19 7 0
-44 -20 6 0
-45 44 0
-45 -20 6 0
-45 20 -6 0
45 -44 -20 -6 0
45 -44 20 6 0
-45 -21 5 0
-46 45 0
-46 -21 5 0
-46 21 -5 0
46 -45 -21 -5 0
46 -45 21 5 0
-46 -22 4 0
-47 46 0
-47 -22 4 0
-47 22 -4 0
47 -46 -22 -4 0
47 -46 22 4 0
-47 -23 3 0
-48 47 0
-48 -23 3 0
-48 23 -3 0
48 -47 -23 -3 0
48 -47 23 3 0
-48 -24 2 0
-49 48 0
-49 -24 2 0
-49 24 -2 0
49 -48 -24 -2 0
49 -48 24 2 0
-49 -25 1 0
-50 49 0
-50 -25 1 0
-50 25 -1 0
50 -49 -25 -1 0
50 -49 25 1 0
21 22 23 24 25 0
5 10 15 20 25 0
-21 16 22 17 0
-20 25 15 19 24 0
-24 19 25 23 20 0
-17 22 12 18 16 21 13 0
-3 8 4 2 7 0
-13 18 8 14 12 17 9 0
-6 11 1 7 2 0
-9 14 4 10 8 13 5 0
-23 18 24 22 19 0
-16 21 11 17 12 0
-19 24 14 20 18 23 15 0
-2 7 3 1 6 0
-15 20 10 14 19 0
-8 13 3 9 7 12 4 0
-5 10 4 9 0
-12 17 7 13 11 16 8 0
-18 23 13 19 17 22 14 0
-22 17 23 21 18 0
-25 20 24 0
-1 6 2 0
-7 12 2 8 6 11 3 0
-4 9 5 3 8 0
-11 16 6 12 7 0
-10 15 5 9 14 0
-14 19 9 15 13 18 10 0
-51 1 0
-51 6 0
-51 11 0
-51 12 0
-52 2 0
-52 7 0
-52 12 0
-52 13 0
-53 3 0
-53 8 0
-53 13 0
-53 14 0
-54 4 0
-54 9 0
-54 14 0
-54 15 0
-55 6 0
-55 11 0
-55 16 0
-55 17 0
-56 7 0
-56 12 0
-56 17 0
-56 18 0
-57 8 0
-57 13 0
-57 18 0
-57 19 0
-58 9 0
-58 14 0
-58 19 0
-58 20 0
-59 11 0
-59 16 0
-59 21 0
-59 22 0
-60 12 0
-60 17 0
-60 22 0
-60 23 0
-61 13 0
-61 18 0
-61 23 0
-61 24 0
-62 14 0
-62 19 0
-62 24 0
-62 25 0
-63 4 0
-63 6 0
-63 7 0
-63 8 0
-64 5 0
-64 7 0
-64 8 0
-64 9 0
-65 9 0
-65 11 0
-65 12 0
-65 13 0
-66 10 0
-66 12 0
-66 13 0
-66 14 0
-67 14 0
-67 16 0
-67 17 0
-67 18 0
-68 15 0
-68 17 0
-68 18 0
-68 19 0
-69 19 0
-69 21 0
-69 22 0
-69 23 0
-70 20 0
-70 22 0
-70 23 0
-70 24 0
-71 2 0
-71 3 0
-71 4 0
-71 6 0
-72 3 0
-72 4 0
-72 5 0
-72 7 0
-73 7 0
-73 8 0
-73 9 0
-73 11 0
-74 8 0
-74 9 0
-74 10 0
-74 12 0
-75 12 0
-75 13 0
-75 14 0
-75 16 0
-76 13 0
-76 14 0
-76 15 0
-76 17 0
-77 17 0
-77 18 0
-77 19 0
-77 21 0
-78 18 0
-78 19 0
-78 20 0
-78 22 0
-79 3 0
-79 8 0
-79 12 0
-79 16 0
-80 4 0
-80 9 0
-80 13 0
-80 17 0
-81 5 0
-81 10 0
-81 14 0
-81 18 0
-82 8 0
-82 13 0
-82 17 0
-82 21 0
-83 9 0
-83 14 0
-83 18 0
-83 22 0
-84 10 0
-84 15 0
-84 19 0
-84 23 0
-85 1 0
-85 2 0
-85 7 0
-85 12 0
-86 2 0
-86 3 0
-86 8 0
-86 13 0
-87 3 0
-87 4 0
-87 9 0
-87 14 0
-88 4 0
-88 5 0
-88 10 0
-88 15 0
-89 6 0
-89 7 0
-89 12 0
-89 17 0
-90 7 0
-90 8 0
-90 13 0
-90 18 0
-91 8 0
-91 9 0
-91 14 0
-91 19 0
-92 9 0
-92 10 0
-92 15 0
-92 20 0
-93 11 0
-93 12 0
-93 17 0
-93 22 0
-94 12 0
-94 13 0
-94 18 0
-94 23 0
-95 13 0
-95 14 0
-95 19 0
-95 24 0
-96 14 0
-96 15 0
-96 20 0
-96 25 0
-97 3 0
-97 7 0
-97 11 0
-97 16 0
-98 4 0
-98 8 0
-98 12 0
-98 17 0
-99 5 0
-99 9 0
-99 13 0
-99 18 0
-100 8 0
-100 12 0
-100 16 0
-100 21 0
-101 9 0
-101 13 0
-101 17 0
-101 22 0
-102 10 0
-102 14 0
-102 18 0
-102 23 0
51 52 53 54 55 56 57 58 59 60 61 62 63 64 65 66 67 68 69 70 71 72 73 74 75 76 77 78 79 80 81 82 83 84 85 86 87 88 89 90 91 92 93 94 95 96 97 98 99 100 101 102 0
-103 3 0
-103 6 0
-103 7 0
-103 11 0
-104 4 0
-104 7 0
-104 8 0
-104 12 0
-105 5 0
-105 8 0
-105 9 0
-105 13 0
-106 8 0
-106 11 0
-106 12 0
-106 16 0
-107 9 0
-107 12 0
-107 13 0
-107 17 0
-108 10 0
-108 13 0
-108 14 0
-108 18 0
-109 13 0
-109 16 0
-109 17 0
-109 21 0
-110 14 0
-110 17 0
-110 18 0
-110 22 0
-111 15 0
-111 18 0
-111 19 0
-111 23 0
-112 1 0
-112 2 0
-112 3 0
-112 7 0
-113 2 0
-113 3 0
-113 4 0
-113 8 0
-114 3 0
-114 4 0
-114 5 0
-114 9 0
-115 6 0
-115 7 0
-115 8 0
-115 12 0
-116 7 0
-116 8 0
-116 9 0
-116 13 0
-117 8 0
-117 9 0
-117 10 0
-117 14 0
-118 11 0
-118 12 0
-118 13 0
-118 17 0
-119 12 0
-119 13 0
-119 14 0
-119 18 0
-120 13 0
-120 14 0
-120 15 0
-120 19 0
-121 16 0
-121 17 0
-121 18 0
-121 22 0
-122 17 0
-122 18 0
-122 19 0
-122 23 0
-123 18 0
-123 19 0
-123 20 0
-123 24 0
-124 2 0
-124 6 0
-124 7 0
-124 8 0
-125 3 0
-125 7 0
-125 8 0
-125 9 0
-126 4 0
-126 8 0
-126 9 0
-126 10 0
-127 7 0
-127 11 0
-127 12 0
-127 13 0
-128 8 0
-128 12 0
-128 13 0
-128 14 0
-129 9 0
-129 13 0
-129 14 0
-129 15 0
-130 12 0
-130 16 0
-130 17 0
-130 18 0
-131 13 0
-131 17 0
-131 18 0
-131 19 0
-132 14 0
-132 18 0
-132 19 0
-132 20 0
-133 17 0
-133 21 0
-133 22 0
-133 23 0
-134 18 0
-134 22 0
-134 23 0
-134 24 0
-135 19 0
-135 23 0
-135 24 0
-135 25 0
-136 3 0
-136 7 0
-136 8 0
-136 11 0
-137 4 0
-137 8 0
-137 9 0
-137 12 0
-138 5 0
-138 9 0
-138 10 0
-138 13 0
-139 8 0
-139 12 0
-139 13 0
-139 16 0
-140 9 0
-140 13 0
-140 14 0
-140 17 0
-141 10 0
-141 14 0
-141 15 0
-141 18 0
-142 13 0
-142 17 0
-142 18 0
-142 21 0
-143 14 0
-143 18 0
-143 19 0
-143 22 0
-144 15 0
-144 19 0
-144 20 0
-144 23 0
-145 1 0
-145 2 0
-145 6 0
-145 11 0
-146 2 0
-146 3 0
-146 7 0
-146 12 0
-147 3 0
-147 4 0
-147 8 0
-147 13 0
-148 4 0
-148 5 0
-148 9 0
-148 14 0
-149 6 0
-149 7 0
-149 11 0
-149 16 0
-150 7 0
-150 8 0
-150 12 0
-150 17 0
-151 8 0
-151 9 0
-151 13 0
-151 18 0
-152 9 0
-152 10 0
-152 14 0
-152 19 0
-153 11 0
-153 12 0
-153 16 0
-153 21 0
-154 12 0
-154 13 0
-154 17 0
-154 22 0
-155 13 0
-155 14 0
-155 18 0
-155 23 0
-156 14 0
-156 15 0
-156 19 0
-156 24 0
-157 2 0
-157 7 0
-157 11 0
-157 12 0
-158 3 0
-158 8 0
-158 12 0
-158 13 0
-159 4 0
-159 9 0
-159 13 0
-159 14 0
-160 5 0
-160 10 0
-160 14 0
-160 15 0
-161 7 0
-161 12 0
-161 16 0
-161 17 0
-162 8 0
-162 13 0
-162 17 0
-162 18 0
-163 9 0
-163 14 0
-163 18 0
-163 19 0
-164 10 0
-164 15 0
-164 19 0
-164 20 0
-165 12 0
-165 17 0
-165 21 0
-165 22 0
-166 13 0
-166 18 0
-166 22 0
-166 23 0
-167 14 0
-167 19 0
-167 23 0
-167 24 0
-168 15 0
-168 20 0
-168 24 0
-168 25 0
103 104 105 106 107 108 109 110 111 112 113 114 115 116 117 118 119 120 121 122 123 124 125 126 127 128 129 130 131 132 133 134 135 136 137 138 139 140 141 142 143 144 145 146 147 148 149 150 151 152 153 154 155 156 157 158 159 160 161 162 163 164 165 166 167 168 0
-169 2 0
-169 3 0
-169 6 0
-169 7 0
-170 3 0
-170 4 0
-170 7 0
-170 8 0
-171 4 0
-171 5 0
-171 8 0
-171 9 0
-172 7 0
-172 8 0
-172 11 0
-172 12 0
-173 8 0
-173 9 0
-173 12 0
-173 13 0
-174 9 0
-174 10 0
-174 13 0
-174 14 0
-175 12 0
-175 13 0
-175 16 0
-175 17 0
-176 13 0
-176 14 0
-176 17 0
-176 18 0
-177 14 0
-177 15 0
-177 18 0
-177 19 0
-178 17 0
-178 18 0
-178 21 0
-178 22 0
-179 18 0
-179 19 0
-179 22 0
-179 23 0
-180 19 0
-180 20 0
-180 23 0
-180 24 0
-181 1 0
-181 2 0
-181 6 0
-181 7 0
-182 2 0
-182 3 0
-182 7 0
-182 8 0
-183 3 0
-183 4 0
-183 8 0
-183 9 0
-184 4 0
-184 5 0
-184 9 0
-184 10 0
-185 6 0
-185 7 0
-185 11 0
-185 12 0
-186 7 0
-186 8 0
-186 12 0
-186 13 0
-187 8 0
-187 9 0
-187 13 0
-187 14 0
-188 9 0
-188 10 0
-188 14 0
-188 15 0
-189 11 0
-189 12 0
-189 16 0
-189 17 0
-190 12 0
-190 13 0
-190 17 0
-190 18 0
-191 13 0
-191 14 0
-191 18 0
-191 19 0
-192 14 0
-192 15 0
-192 19 0
-192 20 0
-193 16 0
-193 17 0
-193 21 0
-193 22 0
-194 17 0
-194 18 0
-194 22 0
-194 23 0
-195 18 0
-195 19 0
-195 23 0
-195 24 0
-196 19 0
-196 20 0
-196 24 0
-196 25 0
-197 2 0
-197 6 0
-197 7 0
-197 11 0
-198 3 0
-198 7 0
-198 8 0
-198 12 0
-199 4 0
-199 8 0
-199 9 0
-199 13 0
-200 5 0
-200 9 0
-200 10 0
-200 14 0
-201 7 0
-201 11 0
-201 12 0
-201 16 0
-202 8 0
-202 12 0
-202 13 0
-202 17 0
-203 9 0
-203 13 0
-203 14 0
-203 18 0
-204 10 0
-204 14 0
-204 15 0
-204 19 0
-205 12 0
-205 16 0
-205 17 0
-205 21 0
-206 13 0
-206 17 0
-206 18 0
-206 22 0
-207 14 0
-207 18 0
-207 19 0
-207 23 0
-208 15 0
-208 19 0
-208 20 0
-208 24 0
169 170 171 172 173 174 175 176 177 178 179 180 181 182 183 184 185 186 187 188 189 190 191 192 193 194 195 196 197 198 199 200 201 202 203 204 205 206 207 208 0
-209 1 0
-209 2 0
-209 3 0
-209 6 0
-210 2 0
-210 3 0
-210 4 0
-210 7 0
-211 3 0
-211 4 0
-211 5 0
-211 8 0
-212 6 0
-212 7 0
-212 8 0
-212 11 0
-213 7 0
-213 8 0
-213 9 0
-213 12 0
-214 8 0
-214 9 0
-214 10 0
-214 13 0
-215 11 0
-215 12 0
-215 13 0
-215 16 0
-216 12 0
-216 13 0
-216 14 0
-216 17 0
-217 13 0
-217 14 0
-217 15 0
-217 18 0
-218 16 0
-218 17 0
-218 18 0
-218 21 0
-219 17 0
-219 18 0
-219 19 0
-219 22 0
-220 18 0
-220 19 0
-220 20 0
-220 23 0
-221 2 0
-221 3 0
-221 7 0
-221 11 0
-222 3 0
-222 4 0
-222 8 0
-222 12 0
-223 4 0
-223 5 0
-223 9 0
-223 13 0
-224 7 0
-224 8 0
-224 12 0
-224 16 0
-225 8 0
-225 9 0
-225 13 0
-225 17 0
-226 9 0
-226 10 0
-226 14 0
-226 18 0
-227 12 0
-227 13 0
-227 17 0
-227 21 0
-228 13 0
-228 14 0
-228 18 0
-228 22 0
-229 14 0
-229 15 0
-229 19 0
-229 23 0
-230 3 0
-230 7 0
-230 11 0
-230 12 0
-231 4 0
-231 8 0
-231 12 0
-231 13 0
-232 5 0
-232 9 0
-232 13 0
-232 14 0
-233 8 0
-233 12 0
-233 16 0
-233 17 0
-234 9 0
-234 13 0
-234 17 0
-234 18 0
-235 10 0
-235 14 0
-235 18 0
-235 19 0
-236 13 0
-236 17 0
-236 21 0
-236 22 0
-237 14 0
-237 18 0
-237 22 0
-237 23 0
-238 15 0
-238 19 0
-238 23 0
-238 24 0
-239 2 0
-239 6 0
-239 7 0
-239 12 0
-240 3 0
-240 7 0
-240 8 0
-240 13 0
-241 4 0
-241 8 0
-241 9 0
-241 14 0
-242 5 0
-242 9 0
-242 10 0
-242 15 0
-243 7 0
-243 11 0
-243 12 0
-243 17 0
-244 8 0
-244 12 0
-244 13 0
-244 18 0
-245 9 0
-245 13 0
-245 14 0
-245 19 0
-246 10 0
-246 14 0
-246 15 0
-246 20 0
-247 12 0
-247 16 0
-247 17 0
-247 22 0
-248 13 0
-248 17 0
-248 18 0
-248 23 0
-249 14 0
-249 18 0
-249 19 0
-249 24 0
-250 15 0
-250 19 0
-250 20 0
-250 25 0
-251 1 0
-251 6 0
-251 7 0
-251 11 0
-252 2 0
-252 7 0
-252 8 0
-252 12 0
-253 3 0
-253 8 0
-253 9 0
-253 13 0
-254 4 0
-254 9 0
-254 10 0
-254 14 0
-255 6 0
-255 11 0
-255 12 0
-255 16 0
-256 7 0
-256 12 0
-256 13 0
-256 17 0
-257 8 0
-257 13 0
-257 14 0
-257 18 0
-258 9 0
-258 14 0
-258 15 0
-258 19 0
-259 11 0
-259 16 0
-259 17 0
-259 21 0
-260 12 0
-260 17 0
-260 18 0
-260 22 0
-261 13 0
-261 18 0
-261 19 0
-261 23 0
-262 14 0
-262 19 0
-262 20 0
-262 24 0
-263 3 0
-263 6 0
-263 7 0
-263 8 0
-264 4 0
-264 7 0
-264 8 0
-264 9 0
-265 5 0
-265 8 0
-265 9 0
-265 10 0
-266 8 0
-266 11 0
-266 12 0
-266 13 0
-267 9 0
-267 12 0
-267 13 0
-267 14 0
-268 10 0
-268 13 0
-268 14 0
-268 15 0
-269 13 0
-269 16 0
-269 17 0
-269 18 0
-270 14 0
-270 17 0
-270 18 0
-270 19 0
-271 15 0
-271 18 0
-271 19 0
-271 20 0
-272 18 0
-272 21 0
-272 22 0
-272 23 0
-273 19 0
-273 22 0
-273 23 0
-273 24 0
-274 20 0
-274 23 0
-274 24 0
-274 25 0
209 210 211 212 213 214 215 216 217 218 219 220 221 222 223 224 225 226 227 228 229 230 231 232 233 234 235 236 237 238 239 240 241 242 243 244 245 246 247 248 249 250 251 252 253 254 255 256 257 258 259 260 261 262 263 264 265 266 267 268 269 270 271 272 273 274 0
-275 1 0
-275 6 0
-275 7 0
-275 12 0
-276 2 0
-276 7 0
-276 8 0
-276 13 0
-277 3 0
-277 8 0
-277 9 0
-277 14 0
-278 4 0
-278 9 0
-278 10 0
-278 15 0
-279 6 0
-279 11 0
-279 12 0
-279 17 0
-280 7 0
-280 12 0
-280 13 0
-280 18 0
-281 8 0
-281 13 0
-281 14 0
-281 19 0
-282 9 0
-282 14 0
-282 15 0
-282 20 0
-283 11 0
-283 16 0
-283 17 0
-283 22 0
-284 12 0
-284 17 0
-284 18 0
-284 23 0
-285 13 0
-285 18 0
-285 19 0
-285 24 0
-286 14 0
-286 19 0
-286 20 0
-286 25 0
-287 3 0
-287 4 0
-287 6 0
-287 7 0
-288 4 0
-288 5 0
-288 7 0
-288 8 0
-289 8 0
-289 9 0
-289 11 0
-289 12 0
-290 9 0
-290 10 0
-290 12 0
-290 13 0
-291 13 0
-291 14 0
-291 16 0
-291 17 0
-292 14 0
-292 15 0
-292 17 0
-292 18 0
-293 18 0
-293 19 0
-293 21 0
-293 22 0
-294 19 0
-294 20 0
-294 22 0
-294 23 0
-295 3 0
-295 7 0
-295 12 0
-295 16 0
-296 4 0
-296 8 0
-296 13 0
-296 17 0
-297 5 0
-297 9 0
-297 14 0
-297 18 0
-298 8 0
-298 12 0
-298 17 0
-298 21 0
-299 9 0
-299 13 0
-299 18 0
-299 22 0
-300 10 0
-300 14 0
-300 19 0
-300 23 0
275 276 277 278 279 280 281 282 283 284 285 286 287 288 289 290 291 292 293 294 295 296 297 298 299 300 0
-301 1 0
-301 2 0
-301 3 0
-301 8 0
-302 2 0
-302 3 0
-302 4 0
-302 9 0
-303 3 0
-303 4 0
-303 5 0
-303 10 0
-304 6 0
-304 7 0
-304 8 0
-304 13 0
-305 7 0
-305 8 0
-305 9 0
-305 14 0
-306 8 0
-306 9 0
-306 10 0
-306 15 0
-307 11 0
-307 12 0
-307 13 0
-307 18 0
-308 12 0
-308 13 0
-308 14 0
-308 19 0
-309 13 0
-309 14 0
-309 15 0
-309 20 0
-310 16 0
-310 17 0
-310 18 0
-310 23 0
-311 17 0
-311 18 0
-311 19 0
-311 24 0
-312 18 0
-312 19 0
-312 20 0
-312 25 0
-313 4 0
-313 8 0
-313 11 0
-313 12 0
-314 5 0
-314 9 0
-314 12 0
-314 13 0
-315 9 0
-315 13 0
-315 16 0
-315 17 0
-316 10 0
-316 14 0
-316 17 0
-316 18 0
-317 14 0
-317 18 0
-317 21 0
-317 22 0
-318 15 0
-318 19 0
-318 22 0
-318 23 0
-319 1 0
-319 6 0
-319 7 0
-319 8 0
-320 2 0
-320 7 0
-320 8 0
-320 9 0
-321 3 0
-321 8 0
-321 9 0
-321 10 0
-322 6 0
-322 11 0
-322 12 0
-322 13 0
-323 7 0
-323 12 0
-323 13 0
-323 14 0
-324 8 0
-324 13 0
-324 14 0
-324 15 0
-325 11 0
-325 16 0
-325 17 0
-325 18 0
-326 12 0
-326 17 0
-326 18 0
-326 19 0
-327 13 0
-327 18 0
-327 19 0
-327 20 0
-328 16 0
-328 21 0
-328 22 0
-328 23 0
-329 17 0
-329 22 0
-329 23 0
-329 24 0
-330 18 0
-330 23 0
-330 24 0
-330 25 0
-331 2 0
-331 7 0
-331 12 0
-331 16 0
-332 3 0
-332 8 0
-332 13 0
-332 17 0
-333 4 0
-333 9 0
-333 14 0
-333 18 0
-334 5 0
-334 10 0
-334 15 0
-334 19 0
-335 7 0
-335 12 0
-335 17 0
-335 21 0
-336 8 0
-336 13 0
-336 18 0
-336 22 0
-337 9 0
-337 14 0
-337 19 0
-337 23 0
-338 10 0
-338 15 0
-338 20 0
-338 24 0
-339 3 0
-339 4 0
-339 7 0
-339 11 0
-340 4 0
-340 5 0
-340 8 0
-340 12 0
-341 8 0
-341 9 0
-341 12 0
-341 16 0
-342 9 0
-342 10 0
-342 13 0
-342 17 0
-343 13 0
-343 14 0
-343 17 0
-343 21 0
-344 14 0
-344 15 0
-344 18 0
-344 22 0
-345 2 0
-345 6 0
-345 11 0
-345 16 0
-346 3 0
-346 7 0
-346 12 0
-346 17 0
-347 4 0
-347 8 0
-347 13 0
-347 18 0
-348 5 0
-348 9 0
-348 14 0
-348 19 0
-349 7 0
-349 11 0
-349 16 0
-349 21 0
-350 8 0
-350 12 0
-350 17 0
-350 22 0
-351 9 0
-351 13 0
-351 18 0
-351 23 0
-352 10 0
-352 14 0
-352 19 0
-352 24 0
301 302 303 304 305 306 307 308 309 310 311 312 313 314 315 316 317 318 319 320 321 322 323 324 325 326 327 328 329 330 331 332 333 334 335 336 337 338 339 340 341 342 343 344 345 346 347 348 349 350 351 352 0
-353 2 0
-353 7 0
-353 11 0
-353 16 0
-354 3 0
-354 8 0
-354 12 0
-354 17 0
-355 4 0
-355 9 0
-355 13 0
-355 18 0
-356 5 0
-356 10 0
-356 14 0
-356 19 0
-357 7 0
-357 12 0
-357 16 0
-357 21 0
-358 8 0
-358 13 0
-358 17 0
-358 22 0
-359 9 0
-359 14 0
-359 18 0
-359 23 0
-360 10 0
-360 15 0
-360 19 0
-360 24 0
-361 1 0
-361 2 0
-361 7 0
-361 8 0
-362 2 0
-362 3 0
-362 8 0
-362 9 0
-363 3 0
-363 4 0
-363 9 0
-363 10 0
-364 6 0
-364 7 0
-364 12 0
-364 13 0
-365 7 0
-365 8 0
-365 13 0
-365 14 0
-366 8 0
-366 9 0
-366 14 0
-366 15 0
-367 11 0
-367 12 0
-367 17 0
-367 18 0
-368 12 0
-368 13 0
-368 18 0
-368 19 0
-369 13 0
-369 14 0
-369 19 0
-369 20 0
-370 16 0
-370 17 0
-370 22 0
-370 23 0
-371 17 0
-371 18 0
-371 23 0
-371 24 0
-372 18 0
-372 19 0
-372 24 0
-372 25 0
-373 4 0
-373 7 0
-373 8 0
-373 11 0
-374 5 0
-374 8 0
-374 9 0
-374 12 0
-375 9 0
-375 12 0
-375 13 0
-375 16 0
-376 10 0
-376 13 0
-376 14 0
-376 17 0
-377 14 0
-377 17 0
-377 18 0
-377 21 0
-378 15 0
-378 18 0
-378 19 0
-378 22 0
353 354 355 356 357 358 359 360 361 362 363 364 365 366 367 368 369 370 371 372 373 374 375 376 377 378 0
-379 1 0
-379 2 0
-379 7 0
-379 11 0
-380 2 0
-380 3 0
-380 8 0
-380 12 0
-381 3 0
-381 4 0
-381 9 0
-381 13 0
-382 4 0
-382 5 0
-382 10 0
-382 14 0
-383 6 0
-383 7 0
-383 12 0
-383 16 0
-384 7 0
-384 8 0
-384 13 0
-384 17 0
-385 8 0
-385 9 0
-385 14 0
-385 18 0
-386 9 0
-386 10 0
-386 15 0
-386 19 0
-387 11 0
-387 12 0
-387 17 0
-387 21 0
-388 12 0
-388 13 0
-388 18 0
-388 22 0
-389 13 0
-389 14 0
-389 19 0
-389 23 0
-390 14 0
-390 15 0
-390 20 0
-390 24 0
-391 3 0
-391 8 0
-391 11 0
-391 12 0
-392 4 0
-392 9 0
-392 12 0
-392 13 0
-393 5 0
-393 10 0
-393 13 0
-393 14 0
-394 8 0
-394 13 0
-394 16 0
-394 17 0
-395 9 0
-395 14 0
-395 17 0
-395 18 0
-396 10 0
-396 15 0
-396 18 0
-396 19 0
-397 13 0
-397 18 0
-397 21 0
-397 22 0
-398 14 0
-398 19 0
-398 22 0
-398 23 0
-399 15 0
-399 20 0
-399 23 0
-399 24 0
-400 1 0
-400 3 0
-400 6 0
-400 7 0
-401 2 0
-401 4 0
-401 7 0
-401 8 0
-402 3 0
-402 5 0
-402 8 0
-402 9 0
-403 6 0
-403 8 0
-403 11 0
-403 12 0
-404 7 0
-404 9 0
-404 12 0
-404 13 0
-405 8 0
-405 10 0
-405 13 0
-405 14 0
-406 11 0
-406 13 0
-406 16 0
-406 17 0
-407 12 0
-407 14 0
-407 17 0
-407 18 0
-408 13 0
-408 15 0
-408 18 0
-408 19 0
-409 16 0
-409 18 0
-409 21 0
-409 22 0
-410 17 0
-410 19 0
-410 22 0
-410 23 0
-411 18 0
-411 20 0
-411 23 0
-411 24 0
-412 2 0
-412 3 0
-412 6 0
-412 11 0
-413 3 0
-413 4 0
-413 7 0
-413 12 0
-414 4 0
-414 5 0
-414 8 0
-414 13 0
-415 7 0
-415 8 0
-415 11 0
-415 16 0
-416 8 0
-416 9 0
-416 12 0
-416 17 0
-417 9 0
-417 10 0
-417 13 0
-417 18 0
-418 12 0
-418 13 0
-418 16 0
-418 21 0
-419 13 0
-419 14 0
-419 17 0
-419 22 0
-420 14 0
-420 15 0
-420 18 0
-420 23 0
-421 2 0
-421 6 0
-421 11 0
-421 12 0
-422 3 0
-422 7 0
-422 12 0
-422 13 0
-423 4 0
-423 8 0
-423 13 0
-423 14 0
-424 5 0
-424 9 0
-424 14 0
-424 15 0
-425 7 0
-425 11 0
-425 16 0
-425 17 0
-426 8 0
-426 12 0
-426 17 0
-426 18 0
-427 9 0
-427 13 0
-427 18 0
-427 19 0
-428 10 0
-428 14 0
-428 19 0
-428 20 0
-429 12 0
-429 16 0
-429 21 0
-429 22 0
-430 13 0
-430 17 0
-430 22 0
-430 23 0
-431 14 0
-431 18 0
-431 23 0
-431 24 0
-432 15 0
-432 19 0
-432 24 0
-432 25 0
-433 2 0
-433 3 0
-433 6 0
-433 8 0
-434 3 0
-434 4 0
-434 7 0
-434 9 0
-435 4 0
-435 5 0
-435 8 0
-435 10 0
-436 7 0
-436 8 0
-436 11 0
-436 13 0
-437 8 0
-437 9 0
-437 12 0
-437 14 0
-438 9 0
-438 10 0
-438 13 0
-438 15 0
-439 12 0
-439 13 0
-439 16 0
-439 18 0
-440 13 0
-440 14 0
-440 17 0
-440 19 0
-441 14 0
-441 15 0
-441 18 0
-441 20 0
-442 17 0
-442 18 0
-442 21 0
-442 23 0
-443 18 0
-443 19 0
-443 22 0
-443 24 0
-444 19 0
-444 20 0
-444 23 0
-444 25 0
379 380 381 382 383 384 385 386 387 388 389 390 391 392 393 394 395 396 397 398 399 400 401 402 403 404 405 406 407 408 409 410 411 412 413 414 415 416 417 418 419 420 421 422 423 424 425 426 427 428 429 430 431 432 433 434 435 436 437 438 439 440 441 442 443 444 0
-445 2 0
-445 7 0
-445 8 0
-445 11 0
-446 3 0
-446 8 0
-446 9 0
-446 12 0
-447 4 0
-447 9 0
-447 10 0
-447 13 0
-448 7 0
-448 12 0
-448 13 0
-448 16 0
-449 8 0
-449 13 0
-449 14 0
-449 17 0
-450 9 0
-450 14 0
-450 15 0
-450 18 0
-451 12 0
-451 17 0
-451 18 0
-451 21 0
-452 13 0
-452 18 0
-452 19 0
-452 22 0
-453 14 0
-453 19 0
-453 20 0
-453 23 0
-454 3 0
-454 6 0
-454 7 0
-454 12 0
-455 4 0
-455 7 0
-455 8 0
-455 13 0
-456 5 0
-456 8 0
-456 9 0
-456 14 0
-457 8 0
-457 11 0
-457 12 0
-457 17 0
-458 9 0
-458 12 0
-458 13 0
-458 18 0
-459 10 0
-459 13 0
-459 14 0
-459 19 0
-460 13 0
-460 16 0
-460 17 0
-460 22 0
-461 14 0
-461 17 0
-461 18 0
-461 23 0
-462 15 0
-462 18 0
-462 19 0
-462 24 0
445 446 447 448 449 450 451 452 453 454 455 456 457 458 459 460 461 462 0
-463 1 0
-463 2 0
-463 3 0
-463 4 0
-464 2 0
-464 3 0
-464 4 0
-464 5 0
-465 6 0
-465 7 0
-465 8 0
-465 9 0
-466 7 0
-466 8 0
-466 9 0
-466 10 0
-467 11 0
-467 12 0
-467 13 0
-467 14 0
-468 12 0
-468 13 0
-468 14 0
-468 15 0
-469 16 0
-469 17 0
-469 18 0
-469 19 0
-470 17 0
-470 18 0
-470 19 0
-470 20 0
-471 21 0
-471 22 0
-471 23 0
-471 24 0
-472 22 0
-472 23 0
-472 24 0
-472 25 0
-473 1 0
-473 6 0
-473 11 0
-473 16 0
-474 2 0
-474 7 0
-474 12 0
-474 17 0
-475 3 0
-475 8 0
-475 13 0
-475 18 0
-476 4 0
-476 9 0
-476 14 0
-476 19 0
-477 5 0
-477 10 0
-477 15 0
-477 20 0
-478 6 0
-478 11 0
-478 16 0
-478 21 0
-479 7 0
-479 12 0
-479 17 0
-479 22 0
-480 8 0
-480 13 0
-480 18 0
-480 23 0
-481 9 0
-481 14 0
-481 19 0
-481 24 0
-482 10 0
-482 15 0
-482 20 0
-482 25 0
-483 4 0
-483 8 0
-483 12 0
-483 16 0
-484 5 0
-484 9 0
-484 13 0
-484 17 0
-485 9 0
-485 13 0
-485 17 0
-485 21 0
-486 10 0
-486 14 0
-486 18 0
-486 22 0
463 464 465 466 467 468 469 470 471 472 473 474 475 476 477 478 479 480 481 482 483 484 485 486 0
-525 487 0
-526 488 0
-527 489 0
-528 490 0
-529 491 0
-530 492 0
-531 493 0
-532 494 0
-533 495 0
-534 496 0
-535 497 0
-536 498 0
-512 487 0
-513 488 0
-514 489 0
-515 490 0
-516 491 0
-517 492 0
-518 493 0
-519 494 0
-520 495 0
-521 496 0
-522 497 0
-523 498 0
-524 499 0
-512 -525 488 0
-512 -526 489 0
-512 -527 490 0
-512 -528 491 0
-512 -529 492 0
-512 -530 493 0
-512 -531 494 0
-512 -532 495 0
-512 -533 496 0
-512 -534 497 0
-512 -535 498 0
-512 -536 499 0
-513 -525 489 0
-513 -526 490 0
-513 -527 491 0
-513 -528 492 0
-513 -529 493 0
-513 -530 494 0
-513 -531 495 0
-513 -532 496 0
-513 -533 497 0
-513 -534 498 0
-513 -535 499 0
-513 -536 500 0
-514 -525 490 0
-514 -526 491 0
-514 -527 492 0
-514 -528 493 0
-514 -529 494 0
-514 -530 495 0
-514 -531 496 0
-514 -532 497 0
-514 -533 498 0
-514 -534 499 0
-514 -535 500 0
-514 -536 501 0
-515 -525 491 0
-515 -526 492 0
-515 -527 493 0
-515 -528 494 0
-515 -529 495 0
-515 -530 496 0
-515 -531 497 0
-515 -532 498 0
-515 -533 499 0
-515 -534 500 0
-515 -535 501 0
-515 -536 502 0
-516 -525 492 0
-516 -526 493 0
-516 -527 494 0
-516 -528 495 0
-516 -529 496 0
-516 -530 497 0
-516 -531 498 0
-516 -532 499 0
-516 -533 500 0
-516 -534 501 0
-516 -535 502 0
-516 -536 503 0
-517 -525 493 0
-517 -526 494 0
-517 -527 495 0
-517 -528 496 0
-517 -529 497 0
-517 -530 498 0
-517 -531 499 0
-517 -532 500 0
-517 -533 501 0
-517 -534 502 0
-517 -535 503 0
-517 -536 504 0
-518 -525 494 0
-518 -526 495 0
-518 -527 496 0
-518 -528 497 0
-518 -529 498 0
-518 -530 499 0
-518 -531 500 0
-518 -532 501 0
-518 -533 502 0
-518 -534 503 0
-518 -535 504 0
-518 -536 505 0
-519 -525 495 0
-519 -526 496 0
-519 -527 497 0
-519 -528 498 0
-519 -529 499 0
-519 -530 500 0
-519 -531 501 0
-519 -532 502 0
-519 -533 503 0
-519 -534 504 0
-519 -535 505 0
-519 -536 506 0
-520 -525 496 0
-520 -526 497 0
-520 -527 498 0
-520 -528 499 0
-520 -529 500 0
-520 -530 501 0
-520 -531 502 0
-520 -532 503 0
-520 -533 504 0
-520 -534 505 0
-520 -535 506 0
-520 -536 507 0
-521 -525 497 0
-521 -526 498 0
-521 -527 499 0
-521 -528 500 0
-521 -529 501 0
-521 -530 502 0
-521 -531 503 0
-521 -532 504 0
-521 -533 505 0
-521 -534 506 0
-521 -535 507 0
-521 -536 508 0
-522 -525 498 0
-522 -526 499 0
-522 -527 500 0
-522 -528 501 0
-522 -529 502 0
-522 -530 503 0
-522 -531 504 0
-522 -532 505 0
-522 -533 506 0
-522 -534 507 0
-522 -535 508 0
-522 -536 509 0
-523 -525 499 0
-523 -526 500 0
-523 -527 501 0
-523 -528 502 0
-523 -529 503 0
-523 -530 504 0
-523 -531 505 0
-523 -532 506 0
-523 -533 507 0
-523 -534 508 0
-523 -535 509 0
-523 -536 510 0
-524 -525 500 0
-524 -526 501 0
-524 -527 502 0
-524 -528 503 0
-524 -529 504 0
-524 -530 505 0
-524 -531 506 0
-524 -532 507 0
-524 -533 508 0
-524 -534 509 0
-524 -535 510 0
-524 -536 511 0
-543 525 0
-544 526 0
-545 527 0
-546 528 0
-547 529 0
-548 530 0
-537 525 0
-538 526 0
-539 527 0
-540 528 0
-541 529 0
-542 530 0
-537 -543 526 0
-537 -544 527 0
-537 -545 528 0
-537 -546 529 0
-537 -547 530 0
-537 -548 531 0
-538 -543 527 0
-538 -544 528 0
-538 -545 529 0
-538 -546 530 0
-538 -547 531 0
-538 -548 532 0
-539 -543 528 0
-539 -544 529 0
-539 -545 530 0
-539 -546 531 0
-539 -547 532 0
-539 -548 533 0
-540 -543 529 0
-540 -544 530 0
-540 -545 531 0
-540 -546 532 0
-540 -547 533 0
-540 -548 534 0
-541 -543 530 0
-541 -544 531 0
-541 -545 532 0
-541 -546 533 0
-541 -547 534 0
-541 -548 535 0
-542 -543 531 0
-542 -544 532 0
-542 -545 533 0
-542 -546 534 0
-542 -547 535 0
-542 -548 536 0
-552 543 0
-553 544 0
-554 545 0
-549 543 0
-550 544 0
-551 545 0
-549 -552 544 0
-549 -553 545 0
-549 -554 546 0
-550 -552 545 0
-550 -553 546 0
-550 -554 547 0
-551 -552 546 0
-551 -553 547 0
-551 -554 548 0
25 552 0
-555 552 0
-556 553 0
-555 25 553 0
-556 25 554 0
24 555 0
23 555 0
23 24 556 0
22 549 0
-557 549 0
-558 550 0
-557 22 550 0
-558 22 551 0
21 557 0
20 557 0
20 21 558 0
-562 537 0
-563 538 0
-564 539 0
-559 537 0
-560 538 0
-561 539 0
-559 -562 538 0
-559 -563 539 0
-559 -564 540 0
-560 -562 539 0
-560 -563 540 0
-560 -564 541 0
-561 -562 540 0
-561 -563 541 0
-561 -564 542 0
19 562 0
-565 562 0
-566 563 0
-565 19 563 0
-566 19 564 0
18 565 0
17 565 0
17 18 566 0
16 559 0
-567 559 0
-568 560 0
-567 16 560 0
-568 16 561 0
15 567 0
14 567 0
14 15 568 0
-576 512 0
-577 513 0
-578 514 0
-579 515 0
-580 516 0
-581 517 0
-569 512 0
-570 513 0
-571 514 0
-572 515 0
-573 516 0
-574 517 0
-575 518 0
-569 -576 513 0
-569 -577 514 0
-569 -578 515 0
-569 -579 516 0
-569 -580 517 0
-569 -581 518 0
-570 -576 514 0
-570 -577 515 0
-570 -578 516 0
-570 -579 517 0
-570 -580 518 0
-570 -581 519 0
-571 -576 515 0
-571 -577 516 0
-571 -578 517 0
-571 -579 518 0
-571 -580 519 0
-571 -581 520 0
-572 -576 516 0
-572 -577 517 0
-572 -578 518 0
-572 -579 519 0
-572 -580 520 0
-572 -581 521 0
-573 -576 517 0
-573 -577 518 0
-573 -578 519 0
-573 -579 520 0
-573 -580 521 0
-573 -581 522 0
-574 -576 518 0
-574 -577 519 0
-574 -578 520 0
-574 -579 521 0
-574 -580 522 0
-574 -581 523 0
-575 -576 519 0
-575 -577 520 0
-575 -578 521 0
-575 -579 522 0
-575 -580 523 0
-575 -581 524 0
-585 576 0
-586 577 0
-587 578 0
-582 576 0
-583 577 0
-584 578 0
-582 -585 577 0
-582 -586 578 0
-582 -587 579 0
-583 -585 578 0
-583 -586 579 0
-583 -587 580 0
-584 -585 579 0
-584 -586 580 0
-584 -587 581 0
13 585 0
-588 585 0
-589 586 0
-588 13 586 0
-589 13 587 0
12 588 0
11 588 0
11 12 589 0
10 582 0
-590 582 0
-591 583 0
-590 10 583 0
-591 10 584 0
9 590 0
8 590 0
8 9 591 0
-596 569 0
-597 570 0
-598 571 0
-592 569 0
-593 570 0
-594 571 0
-595 572 0
-592 -596 570 0
-592 -597 571 0
-592 -598 572 0
-593 -596 571 0
-593 -597 572 0
-593 -598 573 0
-594 -596 572 0
-594 -597 573 0
-594 -598 574 0
-595 -596 573 0
-595 -597 574 0
-595 -598 575 0
7 596 0
-599 596 0
-600 597 0
-599 7 597 0
-600 7 598 0
6 599 0
5 599 0
5 6 600 0
-603 592 0
-604 593 0
-601 592 0
-602 593 0
-601 -603 593 0
-601 -604 594 0
-602 -603 594 0
-602 -604 595 0
4 603 0
3 603 0
3 4 604 0
2 601 0
1 601 0
1 2 602 0
-506 0
-643 605 0
-644 606 0
-645 607 0
-646 608 0
-647 609 0
-648 610 0
-649 611 0
-650 612 0
-651 613 0
-652 614 0
-653 615 0
-654 616 0
-630 605 0
-631 606 0
-632 607 0
-633 608 0
-634 609 0
-635 610 0
-636 611 0
-637 612 0
-638 613 0
-639 614 0
-640 615 0
-641 616 0
-642 617 0
-630 -643 606 0
-630 -644 607 0
-630 -645 608 0
-630 -646 609 0
-630 -647 610 0
-630 -648 611 0
-630 -649 612 0
-630 -650 613 0
-630 -651 614 0
-630 -652 615 0
-630 -653 616 0
-630 -654 617 0
-631 -643 607 0
-631 -644 608 0
-631 -645 609 0
-631 -646 610 0
-631 -647 611 0
-631 -648 612 0
-631 -649 613 0
-631 -650 614 0
-631 -651 615 0
-631 -652 616 0
-631 -653 617 0
-631 -654 618 0
-632 -643 608 0
-632 -644 609 0
-632 -645 610 0
-632 -646 611 0
-632 -647 612 0
-632 -648 613 0
-632 -649 614 0
-632 -650 615 0
-632 -651 616 0
-632 -652 617 0
-632 -653 618 0
-632 -654 619 0
-633 -643 609 0
-633 -644 610 0
-633 -645 611 0
-633 -646 612 0
-633 -647 613 0
-633 -648 614 0
-633 -649 615 0
-633 -650 616 0
-633 -651 617 0
-633 -652 618 0
-633 -653 619 0
-633 -654 620 0
-634 -643 610 0
-634 -644 611 0
-634 -645 612 0
-634 -646 613 0
-634 -647 614 0
-634 -648 615 0
-634 -649 616 0
-634 -650 617 0
-634 -651 618 0
-634 -652 619 0
-634 -653 620 0
-634 -654 621 0
-635 -643 611 0
-635 -644 612 0
-635 -645 613 0
-635 -646 614 0
-635 -647 615 0
-635 -648 616 0
-635 -649 617 0
-635 -650 618 0
-635 -651 619 0
-635 -652 620 0
-635 -653 621 0
-635 -654 622 0
-636 -643 612 0
-636 -644 613 0
-636 -645 614 0
-636 -646 615 0
-636 -647 616 0
-636 -648 617 0
-636 -649 618 0
-636 -650 619 0
-636 -651 620 0
-636 -652 621 0
-636 -653 622 0
-636 -654 623 0
-637 -643 613 0
-637 -644 614 0
-637 -645 615 0
-637 -646 616 0
-637 -647 617 0
-637 -648 618 0
-637 -649 619 0
-637 -650 620 0
-637 -651 621 0
-637 -652 622 0
-637 -653 623 0
-637 -654 624 0
-638 -643 614 0
-638 -644 615 0
-638 -645 616 0
-638 -646 617 0
-638 -647 618 0
-638 -648 619 0
-638 -649 620 0
-638 -650 621 0
-638 -651 622 0
-638 -652 623 0
-638 -653 624 0
-638 -654 625 0
-639 -643 615 0
-639 -644 616 0
-639 -645 617 0
-639 -646 618 0
-639 -647 619 0
-639 -648 620 0
-639 -649 621 0
-639 -650 622 0
-639 -651 623 0
-639 -652 624 0
-639 -653 625 0
-639 -654 626 0
-640 -643 616 0
-640 -644 617 0
-640 -645 618 0
-640 -646 619 0
-640 -647 620 0
-640 -648 621 0
-640 -649 622 0
-640 -650 623 0
-640 -651 624 0
-640 -652 625 0
-640 -653 626 0
-640 -654 627 0
-641 -643 617 0
-641 -644 618 0
-641 -645 619 0
-641 -646 620 0
-641 -647 621 0
-641 -648 622 0
-641 -649 623 0
-641 -650 624 0
-641 -651 625 0
-641 -652 626 0
-641 -653 627 0
-641 -654 628 0
-642 -643 618 0
-642 -644 619 0
-642 -645 620 0
-642 -646 621 0
-642 -647 622 0
-642 -648 623 0
-642 -649 624 0
-642 -650 625 0
-642 -651 626 0
-642 -652 627 0
-642 -653 628 0
-642 -654 629 0
-661 643 0
-662 644 0
-663 645 0
-664 646 0
-665 647 0
-666 648 0
-655 643 0
-656 644 0
-657 645 0
-658 646 0
-659 647 0
-660 648 0
-655 -661 644 0
-655 -662 645 0
-655 -663 646 0
-655 -664 647 0
-655 -665 648 0
-655 -666 649 0
-656 -661 645 0
-656 -662 646 0
-656 -663 647 0
-656 -664 648 0
-656 -665 649 0
-656 -666 650 0
-657 -661 646 0
-657 -662 647 0
-657 -663 648 0
-657 -664 649 0
-657 -665 650 0
-657 -666 651 0
-658 -661 647 0
-658 -662 648 0
-658 -663 649 0
-658 -664 650 0
-658 -665 651 0
-658 -666 652 0
-659 -661 648 0
-659 -662 649 0
-659 -663 650 0
-659 -664 651 0
-659 -665 652 0
-659 -666 653 0
-660 -661 649 0
-660 -662 650 0
-660 -663 651 0
-660 -664 652 0
-660 -665 653 0
-660 -666 654 0
-670 661 0
-671 662 0
-672 663 0
-667 661 0
-668 662 0
-669 663 0
-667 -670 662 0
-667 -671 663 0
-667 -672 664 0
-668 -670 663 0
-668 -671 664 0
-668 -672 665 0
-669 -670 664 0
-669 -671 665 0
-669 -672 666 0
-25 670 0
-673 670 0
-674 671 0
-673 -25 671 0
-674 -25 672 0
-24 673 0
-23 673 0
-23 -24 674 0
-22 667 0
-675 667 0
-676 668 0
-675 -22 668 0
-676 -22 669 0
-21 675 0
-20 675 0
-20 -21 676 0
-680 655 0
-681 656 0
-682 657 0
-677 655 0
-678 656 0
-679 657 0
-677 -680 656 0
-677 -681 657 0
-677 -682 658 0
-678 -680 657 0
-678 -681 658 0
-678 -682 659 0
-679 -680 658 0
-679 -681 659 0
-679 -682 660 0
-19 680 0
-683 680 0
-684 681 0
-683 -19 681 0
-684 -19 682 0
-18 683 0
-17 683 0
-17 -18 684 0
-16 677 0
-685 677 0
-686 678 0
-685 -16 678 0
-686 -16 679 0
-15 685 0
-14 685 0
-14 -15 686 0
-694 630 0
-695 631 0
-696 632 0
-697 633 0
-698 634 0
-699 635 0
-687 630 0
-688 631 0
-689 632 0
-690 633 0
-691 634 0
-692 635 0
-693 636 0
-687 -694 631 0
-687 -695 632 0
-687 -696 633 0
-687 -697 634 0
-687 -698 635 0
-687 -699 636 0
-688 -694 632 0
-688 -695 633 0
-688 -696 634 0
-688 -697 635 0
-688 -698 636 0
-688 -699 637 0
-689 -694 633 0
-689 -695 634 0
-689 -696 635 0
-689 -697 636 0
-689 -698 637 0
-689 -699 638 0
-690 -694 634 0
-690 -695 635 0
-690 -696 636 0
-690 -697 637 0
-690 -698 638 0
-690 -699 639 0
-691 -694 635 0
-691 -695 636 0
-691 -696 637 0
-691 -697 638 0
-691 -698 639 0
-691 -699 640 0
-692 -694 636 0
-692 -695 637 0
-692 -696 638 0
-692 -697 639 0
-692 -698 640 0
-692 -699 641 0
-693 -694 637 0
-693 -695 638 0
-693 -696 639 0
-693 -697 640 0
-693 -698 641 0
-693 -699 642 0
-703 694 0
-704 695 0
-705 696 0
-700 694 0
-701 695 0
-702 696 0
-700 -703 695 0
-700 -704 696 0
-700 -705 697 0
-701 -703 696 0
-701 -704 697 0
-701 -705 698 0
-702 -703 697 0
-702 -704 698 0
-702 -705 699 0
-13 703 0
-706 703 0
-707 704 0
-706 -13 704 0
-707 -13 705 0
-12 706 0
-11 706 0
-11 -12 707 0
-10 700 0
-708 700 0
-709 701 0
-708 -10 701 0
-709 -10 702 0
-9 708 0
-8 708 0
-8 -9 709 0
-714 687 0
-715 688 0
-716 689 0
-710 687 0
-711 688 0
-712 689 0
-713 690 0
-710 -714 688 0
-710 -715 689 0
-710 -716 690 0
-711 -714 689 0
-711 -715 690 0
-711 -716 691 0
-712 -714 690 0
-712 -715 691 0
-712 -716 692 0
-713 -714 691 0
-713 -715 692 0
-713 -716 693 0
-7 714 0
-717 714 0
-718 715 0
-717 -7 715 0
-718 -7 716 0
-6 717 0
-5 717 0
-5 -6 718 0
-721 710 0
-722 711 0
-719 710 0
-720 711 0
-719 -721 711 0
-719 -722 712 0
-720 -721 712 0
-720 -722 713 0
-4 721 0
-3 721 0
-3 -4 722 0
-2 719 0
-1 719 0
-1 -2 720 0
-611 0
